c Formula 5 - Minimal redundancy
c This formula contains mostly unique, non-redundant clauses
c with only minimal simplification opportunities
c Author: SAT Benchmark Generator
c Date: 2024
p cnf 38 165
c Unit clause for propagation
15 0
c A few clauses that will create subsumption opportunities
12 18 0
12 18 23 0
7 9 0
7 9 14 21 0
c One tautological clause
8 -8 22 0
c Regular clauses - mostly 2-5 literals each
1 2 3 0
4 5 6 0
-1 7 8 0
2 -3 9 0
10 11 0
-4 -5 13 0
16 17 18 19 0
-2 14 -7 0
3 -6 11 0
-10 12 -13 0
5 -11 20 0
-12 15 21 0
6 -16 -17 0
-18 19 22 0
13 -19 -20 0
-21 23 24 0
1 -22 -23 0
-24 25 26 0
14 -25 27 0
-26 28 -27 0
20 -28 29 0
-29 30 31 0
22 -30 -31 0
-1 32 33 0
23 -32 34 0
-33 35 -34 0
27 -35 36 0
-36 37 38 0
31 -37 -38 0
2 4 -9 0
-3 -5 10 0
6 8 -12 0
-7 11 13 0
9 -14 -16 0
-8 17 18 0
12 -15 -19 0
c Duplicate clause (appears again later)
16 20 21 0
-17 -22 24 0
19 23 -25 0
-20 26 27 0
21 -24 -28 0
-23 29 30 0
25 -26 -31 0
-27 32 33 0
28 -29 -34 0
-30 35 36 0
-32 37 38 0
1 5 -10 0
-2 7 11 0
3 -6 -13 0
-4 9 14 0
8 -11 16 0
-9 12 -17 0
10 -13 18 0
-12 15 -19 0
13 17 20 0
-14 -18 -21 0
18 19 22 0
-16 -20 23 0
20 21 -24 0
-19 24 25 0
-21 -23 26 0
23 -25 -27 0
24 26 28 0
-22 27 -29 0
-26 30 31 0
29 -28 32 0
-31 33 -30 0
28 -33 34 0
-32 35 -34 0
33 -35 36 0
34 36 -37 0
-36 37 38 0
1 -7 -15 0
-1 6 14 0
2 -8 13 0
-2 9 -12 0
3 10 -11 0
-3 -10 17 0
4 11 -18 0
-4 12 19 0
5 -14 20 0
-5 16 -20 0
7 -17 21 0
-6 18 -21 0
8 -19 22 0
-8 20 -22 0
9 21 23 0
-9 -21 24 0
11 22 -25 0
-11 -23 26 0
14 24 27 0
-13 25 -27 0
15 -24 28 0
-15 26 -28 0
17 27 29 0
-16 -26 30 0
19 -27 -31 0
-18 28 31 0
-19 29 32 0
-20 -29 33 0
c Duplicate clause (first appearance above)
16 20 21 0
22 30 -33 0
-22 31 34 0
23 -30 35 0
-23 32 -35 0
25 33 36 0
-25 -32 37 0
26 -31 -36 0
-24 34 38 0
27 35 -38 0
-27 -34 1 0
29 -36 2 0
-28 37 -2 0
30 38 3 0
-29 -37 -3 0
31 -38 4 0
32 1 -4 0
-31 -1 5 0
33 2 -5 0
-33 3 6 0
34 -3 7 0
-34 4 -7 0
35 5 8 0
-35 -5 9 0
36 -4 10 0
-36 6 -10 0
37 7 11 0
-37 8 12 0
38 -8 -12 0
-38 9 13 0
1 10 -13 0
2 -9 14 0
-2 11 -14 0
3 12 16 0
4 -11 -16 0
-4 13 17 0
5 14 -17 0
6 -12 18 0
-6 -14 19 0
7 15 -18 0
8 16 -19 0
9 -15 20 0
10 17 21 0
-10 -16 22 0
11 -17 23 0
12 18 -20 0
13 19 24 0
-13 -18 25 0
-11 20 -21 0
14 -19 26 0
-14 21 27 0
c Third duplicate of an earlier clause
7 9 14 21 0
16 22 -24 0
17 -20 28 0
18 23 -22 0
19 -21 29 0
20 24 -23 0